1622527200
1622559120
1622613600
1622647800
1622700000
1622734200
1622786400
1622819700
1623045600
1623079800
1623140100
1623166200
1623220500
1623252300
1623304800
1623338700
1623393000
1623425400
1623650400
1623684600
1623736800
1623769200
1623823200
1623857400
1623909600
1623943800
1623996000
1624030200
1624255200
1624289400
1624341600
1624371180
1624428000
1624462200
1624514400
1624548000
1624600800
1624624500
1624860000
1624894200
1624946400
1624980000
1625033700
1625067000
